c Maximum weighted clique instances generated from exactcolors.
c cutoff: 10177647.
c A clique of value > scalef (10177647) defines an improving stable sets for coloring.
p edge 49 0
n 1 10177647
n 2 10177647
n 3 10177647
n 4 10177647
n 5 10177647
n 6 10177647
n 7 10177647
n 8 10177647
n 9 10177647
n 10 10177647
n 11 10177647
n 12 10177647
n 13 10177647
n 14 10177647
n 15 10177647
n 16 10177647
n 17 10177647
n 18 10177647
n 19 10177647
n 20 10177647
n 21 10177647
n 22 10177647
n 23 10177647
n 24 10177647
n 25 10177647
n 26 10177647
n 27 10177647
n 28 10177647
n 29 10177647
n 30 10177647
n 31 10177647
n 32 10177647
n 33 10177647
n 34 10177647
n 35 10177647
n 36 10177647
n 37 10177647
n 38 10177647
n 39 10177647
n 40 10177647
n 41 10177647
n 42 10177647
n 43 10177647
n 44 10177647
n 45 10177647
n 46 10177647
n 47 10177647
n 48 10177647
n 49 10177647
